 H  C                                   
   1.0000000000000000     
    10.2974423583591665    0.0000000000000000    0.0000000000000000
    -0.2706536026895245    9.7341993543898493    0.0000000000000000
    -0.0462316463383065    0.0082262690908460   10.2683235508499546
   H    C 
     4     1
Direct
  0.5416869106565887  0.4163207191791559  0.3587561189413283
  0.4002395945452260  0.4756867214137382  0.4416285430847914
  0.5445905111061063  0.5710877359102566  0.4433133477562507
  0.5301276730315888  0.4108791417095497  0.5365108506710615
  0.5033080010999451  0.4666988545743633  0.4453129103143323

 -0.98617913E-02  0.47201572E-02  0.15472679E-01
  0.47006722E-02 -0.10885761E-01 -0.10809544E-01
 -0.89705414E-02  0.20327128E-01  0.17379096E-02
  0.25207885E-02 -0.38039545E-02  0.63443788E-02
  0.96668654E-03 -0.86234034E-03 -0.10611458E-02

           1
   2.0000000000000000     
  0.24308351E+01  0.33057544E+00  0.00000000E+00  0.00000000E+00
  0.53981048E+00  0.41728798E+00  0.36176979E+00
  0.40108438E+00  0.47345190E+00  0.43952313E+00
  0.54295951E+00  0.57526389E+00  0.44365185E+00
  0.53060225E+00  0.41009653E+00  0.53774657E+00
  0.50349017E+00  0.46652185E+00  0.44510623E+00
 -0.15812411E-02  0.24775024E-02  0.29638763E-02
  0.17661577E-02 -0.16748022E-02 -0.19935779E-02
 -0.13442309E-02  0.26027879E-02 -0.29702304E-03
  0.73322403E-03 -0.12149909E-02  0.21606201E-02
  0.35475007E-04 -0.18237426E-03 -0.23594168E-03
  0.00000000E+00  0.00000000E+00  0.00000000E+00
  0.00000000E+00  0.00000000E+00  0.00000000E+00
  0.00000000E+00  0.00000000E+00  0.00000000E+00
  0.00000000E+00  0.00000000E+00  0.00000000E+00
  0.00000000E+00  0.00000000E+00  0.00000000E+00
