 H  C 
 1.0000000000000000
    10.2974423583591665    0.0000000000000000    0.0000000000000000
    -0.2706536026895245    9.7341993543898493    0.0000000000000000
    -0.0462316463383065    0.0082262690908460   10.2683235508499546
   H   C
   4   1
Cartesian
  5.4167417376267419  3.9679678193155237  3.6965638062315378
  3.9135121707179841  4.6795203794273812  4.5072510274437079
  5.5108152981682998  5.5069176800576960  4.5471479400024588
  5.3073790726346939  4.0643507341266902  5.5323810649922693
  5.0382428820113061  4.5497273772234825  4.5723187119959388
