 H  C 
 1.0000000000000000
    10.2834804818427390    0.0000000000000000    0.0000000000000000
    -0.1177830453940275    9.8437103924729499    0.0000000000000000
    -0.0054341564050697    0.2810683572248631   10.0656757305084064
   H   C
   4   1
Cartesian
  5.4828082839522345  4.1027509952340573  3.6293293294455489
  3.9984217256154788  4.8546572434355877  4.4146612375243288
  5.6075600527073917  5.6901973118875846  4.4557633509094883
  5.3797111662372110  4.2570374269883464  5.4309690560109125
  5.1158532740395355  4.7277481375352259  4.4848060577994984
