 H  C 
 1.0000000000000000
     9.7357286647728696    0.0000000000000000    0.0000000000000000
    -0.1655674474618183   10.0054623468965200    0.0000000000000000
    -0.2466056570802965    0.2850663729745946   10.0286074046448412
   H   C
   4   1
Cartesian
  5.0829681934527366  4.1710431842324391  3.6140992834579615
  3.6576506203020585  4.9311752614912345  4.3959438913190798
  5.1700582741730043  5.7854028319972617  4.4378959953455821
  4.9405818805127781  4.3199699962825040  5.4074964893355384
  4.7145116804558116  4.8025790361115348  4.4594610377521757
