POSCAR file written by OVITO
1
9.1512442 0.0 0.0
0.1324643 9.2433281 0.0
-0.1443261 0.0859189 9.1948395
Zr
32
Cartesian
4.4260001 4.5464902 4.58247
4.5764599 0.0882818 0.0078786
0.0663764 2.37994 6.7687502
6.8171001 4.6809101 6.85149
4.35673 0.121065 4.5940399
9.2801705 4.5717602 -0.0145046
2.16046 2.40764 9.2260103
-0.0932922 0.112285 9.1797705
6.8437902 4.6205001 2.32918
6.8121901 7.0081401 4.6121001
0.0618507 4.5598603 4.5356698
6.7337399 2.4159801 4.5989499
4.4705 2.30001 2.4407301
2.2662201 2.34746 4.6482501
0.111417 2.3223 2.4645
6.8882098 2.3089399 0.0455659
2.4209099 9.3971005 2.3843901
2.3440499 9.4090405 6.8487902
0.224836 9.3869801 4.5792299
4.3759599 2.38149 6.7659602
6.8081398 0.0617936 6.84756
6.94055 9.3318901 2.3692501
2.18465 4.5675903 6.7617202
2.3840401 6.95042 4.58914
2.2707701 7.0644202 9.2167997
0.136021 6.93006 2.30882
4.4777398 6.98387 6.86755
9.1952696 6.9482698 6.7892499
2.33727 4.5591202 2.4017201
4.45893 4.66502 9.23594
6.9785 6.9130902 -0.0510869
4.60113 6.9285798 2.3120101
