 H  C 
 1.0000000000000000
     9.7292325586000832    0.0000000000000000    0.0000000000000000
    -0.1637821863358105   10.0405890819218175    0.0000000000000000
    -0.1856867679869547    0.1021675818406524    9.8996994190349046
   H   C
   4   1
Cartesian
  5.1042377041641664  4.1213494560314752  3.5680392444098867
  3.6787116768816843  4.8680028865467886  4.3407962808254350
  5.1977703008632945  5.7229941110189388  4.3821412283640910
  4.9702895055338834  4.2364970461248825  5.3381456869740775
  4.7387739949243652  4.7329928400165624  4.4071810325119491
