 H  C                                   
   1.0000000000000000     
    10.0905628229542046    0.0000000000000000    0.0000000000000000
    -0.2942338639141885    9.8116317163684297    0.0000000000000000
    -0.0161318756851196    0.1681404556585337    9.7520433057464917
   H    C 
     4     1
Direct
  0.5409822378314835  0.4020761076630092  0.3693298780710169
  0.4020822425823056  0.4991738501840304  0.4284622415556820
  0.5715716739712728  0.5559125667279418  0.4476560967938704
  0.5014320765591396  0.4132096171776082  0.5394202297562820
  0.5032655123982687  0.4669057388105053  0.4444251252550117

 -0.88072982E-02 -0.19298202E-01 -0.57355514E-02
 -0.63090344E-02  0.47544711E-02 -0.94825443E-02
 -0.37834640E-03 -0.44828128E-02  0.81604856E-02
 -0.11853977E-01 -0.16670766E-01  0.62422111E-02
  0.22769675E-02  0.29720514E-02  0.67887690E-04

           1
   2.0000000000000000     
  0.37427948E+01  0.93822092E+00  0.00000000E+00  0.00000000E+00
  0.53912059E+00  0.39816253E+00  0.36815360E+00
  0.40085788E+00  0.50017633E+00  0.42651751E+00
  0.57147188E+00  0.55497011E+00  0.44932969E+00
  0.49898488E+00  0.40978951E+00  0.54070042E+00
  0.50373450E+00  0.46751132E+00  0.44443905E+00
 -0.28284396E-02 -0.10189068E-02  0.23119479E-02
  0.77506842E-04  0.12810552E-02 -0.14934269E-02
  0.91680240E-03 -0.15758277E-02  0.21266138E-02
 -0.29783752E-02 -0.25262473E-02 -0.18695926E-02
  0.40067485E-03  0.31970083E-03 -0.89546425E-04
  0.00000000E+00  0.00000000E+00  0.00000000E+00
  0.00000000E+00  0.00000000E+00  0.00000000E+00
  0.00000000E+00  0.00000000E+00  0.00000000E+00
  0.00000000E+00  0.00000000E+00  0.00000000E+00
  0.00000000E+00  0.00000000E+00  0.00000000E+00
