 H  C                                   
   1.0000000000000000     
    10.2312111954939713    0.0000000000000000    0.0000000000000000
     0.2024048190161879   10.2204128378313523    0.0000000000000000
     0.2239237302077985   -0.0301950819650541   10.2664329436159036
   H    C 
     4     1
Direct
  0.5408566573305496  0.4084150065050874  0.3607278140682407
  0.3965737706976906  0.4847598988539787  0.4367247625471311
  0.5532627481867729  0.5600334014281203  0.4462186358313590
  0.5215215487267645  0.4179656481215698  0.5354031729710016
  0.5028070436685902  0.4664291296223143  0.4449485536210050

  0.70880589E-02  0.12469770E-01 -0.43069267E-02
  0.32162623E-01  0.39965466E-02 -0.36730426E-02
  0.10920229E-01  0.69006681E-02  0.40823323E-02
 -0.45957870E-03 -0.10638803E-01  0.96352062E-04
 -0.41388171E-02 -0.10597104E-02  0.31648363E-03

           1
   2.0000000000000000     
  0.17073539E+01  0.19344536E+00  0.82783394E-18  0.00000000E+00
  0.54221237E+00  0.41085270E+00  0.35988878E+00
  0.40286116E+00  0.48553986E+00  0.43600922E+00
  0.55535327E+00  0.56138612E+00  0.44701391E+00
  0.52147248E+00  0.41588383E+00  0.53542194E+00
  0.50200074E+00  0.46622194E+00  0.44501021E+00
  0.13528303E-02  0.18665932E-02 -0.79366538E-03
  0.57547242E-02  0.13276217E-02 -0.23653295E-03
  0.13269645E-02  0.14384154E-02  0.81521438E-03
 -0.57437820E-03 -0.85553128E-03 -0.29286427E-02
 -0.65441186E-03 -0.31446998E-03  0.26172897E-03
  0.00000000E+00  0.00000000E+00  0.00000000E+00
  0.00000000E+00  0.00000000E+00  0.00000000E+00
  0.00000000E+00  0.00000000E+00  0.00000000E+00
  0.00000000E+00  0.00000000E+00  0.00000000E+00
  0.00000000E+00  0.00000000E+00  0.00000000E+00
