 H  C 
 1.0000000000000000
     9.7747182061097853    0.0000000000000000    0.0000000000000000
    -0.2353626976161965   10.1109630332120606    0.0000000000000000
    -0.2135812299939590   -0.2087898181850080   10.2938239789429726
   H   C
   4   1
Cartesian
  5.0908700914360328  4.0370160218661812  3.7147115320929420
  3.6522320806733721  4.7635398983433532  4.5153137856558434
  5.1644730084826902  5.6204377650054980  4.5610170935468313
  4.9484351736686634  4.0966514000177749  5.5513674445620333
  4.7154328358006961  4.6332151248737761  4.5829154926033864
