 H  C 
 1.0000000000000000
    10.2312111954939713    0.0000000000000000    0.0000000000000000
     0.2024048190161879   10.2204128378313523    0.0000000000000000
     0.2239237302077985   -0.0301950819650541   10.2664329436159036
   H   C
   4   1
Cartesian
  5.6692779505673734  4.1445176357757152  3.7001849725722180
  4.2332221491160276  4.8946583939430912  4.5003664399639192
  5.8636968948934243  5.7671854340473496  4.5448819315294138
  5.6086659776582248  4.2363980991251013  5.5320185513612197
  5.3375047589182785  4.7559685138003900  4.5669767906799317
