 H  C                                   
   1.0000000000000000     
    10.0872845938446414    0.0000000000000000    0.0000000000000000
    -0.1064116073433415   10.0366080070776995    0.0000000000000000
    -0.0808687467451478   -0.0301433330511457    9.8762991345105018
   H    C 
     4     1
Direct
  0.5411700507448515  0.4014120480431495  0.3648330966383029
  0.3982644307359076  0.4758482500827723  0.4332715794824063
  0.5489600631504211  0.5625159471678657  0.4326014171034560
  0.5305547952753327  0.4278864004270431  0.5456770013638640
  0.5027525830654862  0.4674216067528694  0.4457992637414864

  0.44649046E-02 -0.45007485E-02  0.11627090E-01
 -0.71740297E-02  0.47605668E-02 -0.13965969E-01
  0.94907138E-02 -0.41249128E-03 -0.26341323E-01
  0.11591123E-01 -0.27647415E-02  0.41266221E-02
 -0.15296571E-02  0.24289522E-03  0.20442578E-02

           1
   2.0000000000000000     
  0.21251549E+01  0.31069687E+00  0.00000000E+00  0.00000000E+00
  0.54206479E+00  0.40052225E+00  0.36718764E+00
  0.39682928E+00  0.47678840E+00  0.43044340E+00
  0.55079798E+00  0.56241773E+00  0.42726717E+00
  0.53285387E+00  0.42733798E+00  0.54651266E+00
  0.50245314E+00  0.46747125E+00  0.44621324E+00
  0.10055017E-02 -0.96374904E-03  0.13648474E-02
 -0.36174886E-03  0.61811452E-03 -0.24409877E-02
  0.12853844E-02 -0.10826358E-02 -0.56956446E-02
  0.17337252E-02 -0.30664383E-03  0.28097559E-02
 -0.30495899E-03  0.14444378E-03  0.32986671E-03
  0.00000000E+00  0.00000000E+00  0.00000000E+00
  0.00000000E+00  0.00000000E+00  0.00000000E+00
  0.00000000E+00  0.00000000E+00  0.00000000E+00
  0.00000000E+00  0.00000000E+00  0.00000000E+00
  0.00000000E+00  0.00000000E+00  0.00000000E+00
