 H  C 
 1.0000000000000000
    10.0872845938446414    0.0000000000000000    0.0000000000000000
    -0.1064116073433415   10.0366080070776995    0.0000000000000000
    -0.0808687467451478   -0.0301433330511457    9.8762991345105018
   H   C
   4   1
Cartesian
  5.3573539965329280  4.0697624747407284  3.5622193246474749
  3.8990052233063719  4.8061156615819076  4.3370519942942494
  5.4715285369251054  5.6613827765281775  4.3706185496313976
  5.2340697178225861  4.1665744903092543  5.3197439978755865
  4.9907270767537497  4.6768585399555498  4.3990551045512056
