 H  C                                   
   1.0000000000000000     
     9.7025264203404955    0.0000000000000000    0.0000000000000000
     0.2737881760076271   10.0376644111874711    0.0000000000000000
     0.0342644753572266    0.2825264040285087    9.8373700163772870
   H    C 
     4     1
Direct
  0.5366927447730345  0.4023650702435542  0.3656500367140065
  0.3935532473380183  0.4984872385825774  0.4254380650926507
  0.5694148363744590  0.5520797202454051  0.4448332855700069
  0.5228870901194489  0.4122724612909032  0.5389880705412367
  0.5025094737102833  0.4675558545986393  0.4455833829354082

  0.83910027E-04 -0.14684142E-01 -0.59066550E-02
  0.11310992E-01  0.20485090E-01  0.25875738E-01
  0.12844035E-01  0.12241518E-01 -0.61594331E-02
 -0.14947643E-01  0.24896264E-02  0.12989504E-02
 -0.77356540E-03 -0.17094407E-02 -0.12578970E-02

           1
   2.0000000000000000     
  0.20068120E+01  0.29449965E+00  0.82783394E-18  0.00000000E+00
  0.53679589E+00  0.39947306E+00  0.36444918E+00
  0.39575523E+00  0.50242081E+00  0.43069877E+00
  0.57199700E+00  0.55455408E+00  0.44358103E+00
  0.51979118E+00  0.41276109E+00  0.53925216E+00
  0.50236033E+00  0.46722245E+00  0.44532764E+00
 -0.17576819E-03 -0.17894227E-02  0.10052854E-03
 -0.61998025E-03  0.50685700E-02  0.32827409E-02
  0.14897220E-02 -0.20075279E-03 -0.80128453E-03
 -0.26047545E-02  0.24739059E-03 -0.12021236E-02
  0.15908591E-03 -0.27689494E-03 -0.11488313E-03
  0.00000000E+00  0.00000000E+00  0.00000000E+00
  0.00000000E+00  0.00000000E+00  0.00000000E+00
  0.00000000E+00  0.00000000E+00  0.00000000E+00
  0.00000000E+00  0.00000000E+00  0.00000000E+00
  0.00000000E+00  0.00000000E+00  0.00000000E+00
