 H  C 
 1.0000000000000000
     9.9291884556336321    0.0000000000000000    0.0000000000000000
    -0.2870499441818287   10.1492599526458402    0.0000000000000000
     0.0745417300353780   -0.2493850617688469    9.9713293434013490
   H   C
   4   1
Cartesian
  5.2542554018895009  4.0384109511956083  3.5945601468398483
  3.8094048590075564  4.7622570062756777  4.3697210037766130
  5.3505010917417231  5.6251013746858920  4.4141348064883177
  5.1692223669030337  4.0945765821066455  5.3729055067540665
  4.9004652164205140  4.6268317226043125  4.4449669343908766
