 H  C                                   
   1.0000000000000000     
     9.9057582038435239    0.0000000000000000    0.0000000000000000
     0.1865600200869158   10.0914877560844776    0.0000000000000000
    -0.0327605100652195   -0.0692493111046370   10.1432607513230906
   H    C 
     4     1
Direct
  0.5284244819714765  0.4044601032177174  0.3597157172213351
  0.3927842860692091  0.4924351972249709  0.4468084801379050
  0.5633318111862956  0.5569186453490476  0.4447766193022964
  0.5314198118791676  0.4128139886322894  0.5339286412063530
  0.5027969175752922  0.4672783996932454  0.4451739769687727

  0.76792001E-02 -0.12158757E-01 -0.12928845E-01
 -0.21641162E-02  0.60042089E-02 -0.99509030E-02
  0.24266673E-01  0.34241775E-02  0.46409779E-02
 -0.62852684E-02 -0.89122402E-02  0.10022651E-01
 -0.19562475E-02  0.96932902E-03  0.68404955E-03

           1
   2.0000000000000000     
  0.13275660E+01  0.72755764E-01 -0.33113358E-17  0.00000000E+00
  0.53001222E+00  0.40203290E+00  0.35716647E+00
  0.39231870E+00  0.49361169E+00  0.44484641E+00
  0.56822145E+00  0.55760355E+00  0.44569171E+00
  0.53019034E+00  0.41106126E+00  0.53590486E+00
  0.50239876E+00  0.46747143E+00  0.44530885E+00
  0.19324925E-02 -0.14630732E-02 -0.21612021E-02
 -0.17191525E-02  0.21350954E-02 -0.43214649E-03
  0.39746927E-02 -0.50658081E-04  0.55830967E-03
 -0.14396883E-02 -0.15139512E-02  0.20987786E-05
 -0.22881895E-03  0.74314129E-04  0.16925653E-03
  0.00000000E+00  0.00000000E+00  0.00000000E+00
  0.00000000E+00  0.00000000E+00  0.00000000E+00
  0.00000000E+00  0.00000000E+00  0.00000000E+00
  0.00000000E+00  0.00000000E+00  0.00000000E+00
  0.00000000E+00  0.00000000E+00  0.00000000E+00
