 H  C 
 1.0000000000000000
     9.9057582038435239    0.0000000000000000    0.0000000000000000
     0.1865600200869158   10.0914877560844776    0.0000000000000000
    -0.0327605100652195   -0.0692493111046370   10.1432607513230906
   H   C
   4   1
Cartesian
  5.3910917418853730  4.0758192953501142  3.6601805447498563
  3.9806115874414605  4.8199208148579684  4.4442274574865932
  5.5590325627247594  5.6761045512955288  4.4900442297189400
  5.2919184080414343  4.1617710780676722  5.4782131803649108
  5.0562328135061883  4.6830254067166939  4.5184615677261464
