 H  C 
 1.0000000000000000
     9.9044530921995211    0.0000000000000000    0.0000000000000000
    -0.0407568862243665    9.9665273119375861    0.0000000000000000
    -0.2225865534924387   -0.2524301182935911    9.9717067195784317
   H   C
   4   1
Cartesian
  5.2317207874934857  3.9619552537244145  3.5975847357770001
  3.7930401395422932  4.6798584750386061  4.3738090704421397
  5.3528332299196961  5.5314897106742977  4.4139294053095686
  5.0958809722613454  4.0153585571558894  5.3760978811487163
  4.8598896021696190  4.5436215264695310  4.4464938303447470
