 H  C                                   
   1.0000000000000000     
     9.7357286647728696    0.0000000000000000    0.0000000000000000
    -0.1655674474618183   10.0054623468965200    0.0000000000000000
    -0.2466056570802965    0.2850663729745946   10.0286074046448412
   H    C 
     4     1
Direct
  0.5395127480562409  0.4173079174091553  0.3610222234537678
  0.3908369440133334  0.4774487836247271  0.4355700874723095
  0.5536692378053023  0.5647509285215888  0.4427572993392300
  0.5355244472295484  0.4179132195826690  0.5395568048694231
  0.5029296521790899  0.4666240109463168  0.4448025344494317

  0.11907424E-01 -0.18963085E-01  0.35327398E-02
 -0.68244318E-02  0.50949288E-03 -0.13367002E-01
 -0.12500671E-01  0.36863102E-02  0.36652898E-02
  0.22784993E-01 -0.20886603E-01  0.31129791E-02
 -0.12794367E-02  0.29684361E-02  0.25443283E-03

           1
   2.0000000000000000     
  0.21207818E+01  0.28132140E+00  0.00000000E+00  0.00000000E+00
  0.54191192E+00  0.41349730E+00  0.36172676E+00
  0.38937051E+00  0.47762658E+00  0.43290431E+00
  0.55113193E+00  0.56546696E+00  0.44348827E+00
  0.54014957E+00  0.41372049E+00  0.54017762E+00
  0.50267817E+00  0.46721593E+00  0.44485328E+00
  0.14602677E-02 -0.14761573E-02  0.28130402E-02
 -0.28275707E-02 -0.36393358E-03 -0.22070285E-02
 -0.28219966E-02 -0.77732152E-03  0.12258980E-02
  0.37557754E-02 -0.25558193E-02  0.36685086E-04
  0.36093919E-04  0.43070782E-03 -0.15557362E-03
  0.00000000E+00  0.00000000E+00  0.00000000E+00
  0.00000000E+00  0.00000000E+00  0.00000000E+00
  0.00000000E+00  0.00000000E+00  0.00000000E+00
  0.00000000E+00  0.00000000E+00  0.00000000E+00
  0.00000000E+00  0.00000000E+00  0.00000000E+00
