 H  C                                   
   1.0000000000000000     
     9.9139710018055265    0.0000000000000000    0.0000000000000000
    -0.1598777045936283    9.7829196936246632    0.0000000000000000
     0.0861410420268083   -0.0207235499131867   10.0929613192661165
   H    C 
     4     1
Direct
  0.5412748039339389  0.4077168038364278  0.3639805464815148
  0.3920293348911194  0.4832043456873728  0.4407592407267337
  0.5554217617480837  0.5660686193646142  0.4542967950637960
  0.5301487543939790  0.4078216013657872  0.5359996436202640
  0.5023161883052596  0.4676762986285719  0.4442183290540155

 -0.89627808E-02  0.48302815E-02 -0.61085227E-02
  0.16468910E-02 -0.14124015E-01  0.79138663E-02
 -0.86880580E-02  0.13190489E-01  0.62320560E-02
 -0.95284269E-02  0.88388830E-02 -0.75044486E-02
  0.21257493E-02 -0.10603312E-02 -0.44371904E-04

           1
   2.0000000000000000     
  0.12230806E+01  0.54408888E-01  0.82783394E-18  0.00000000E+00
  0.53949309E+00  0.40870173E+00  0.36277009E+00
  0.39230143E+00  0.48032018E+00  0.44232744E+00
  0.55370187E+00  0.56876787E+00  0.45553173E+00
  0.52826854E+00  0.40962545E+00  0.53451258E+00
  0.50274161E+00  0.46745951E+00  0.44420954E+00
 -0.27918716E-02  0.59736140E-03  0.29644253E-03
 -0.15069555E-02 -0.21561068E-02  0.10474542E-02
 -0.20769826E-02  0.15663632E-02  0.13843210E-02
 -0.54392460E-03  0.56962624E-03  0.46620823E-03
  0.57611642E-03 -0.48059611E-04 -0.26595837E-03
  0.00000000E+00  0.00000000E+00  0.00000000E+00
  0.00000000E+00  0.00000000E+00  0.00000000E+00
  0.00000000E+00  0.00000000E+00  0.00000000E+00
  0.00000000E+00  0.00000000E+00  0.00000000E+00
  0.00000000E+00  0.00000000E+00  0.00000000E+00
