 H  C 
 1.0000000000000000
     9.9139710018055265    0.0000000000000000    0.0000000000000000
    -0.1598777045936283    9.7829196936246632    0.0000000000000000
     0.0861410420268083   -0.0207235499131867   10.0929613192661165
   H   C
   4   1
Cartesian
  5.3052028754558611  3.9709227992581155  3.6384150550242835
  3.8694002265461389  4.6872508111191893  4.4192763084058351
  5.4198112282792525  5.5226369897605414  4.4680777408106849
  5.2161265302769797  4.0602626307536447  5.4441053472679721
  4.9485219230190545  4.5631221542428184  4.4957468949342756
