 H  C 
 1.0000000000000000
     9.7198272667031809    0.0000000000000000    0.0000000000000000
     0.2771585538928211   10.0330761918221558    0.0000000000000000
    -0.1006435923262184    0.1760881065619950    9.7064908351249617
   H   C
   4   1
Cartesian
  5.3057147679353101  4.1449906378354173  3.5000330265910820
  3.9255687233552528  4.8977219427034138  4.2532352122018233
  5.4831003963172638  5.7467803219265212  4.2980724173491565
  5.1950206184483756  4.2727734081717204  5.2335495534578236
  4.9788167797573832  4.7659007092968659  4.3240167504378126
