 H  C 
 1.0000000000000000
    10.1449280942019016    0.0000000000000000    0.0000000000000000
    -0.1128434523043857   10.0111982174114686    0.0000000000000000
     0.1685112834572081   -0.2553694328689577    9.8549561657200702
   H   C
   4   1
Cartesian
  5.4796943037038055  3.9861683944686446  3.5472967811401972
  4.0185404533319762  4.7008620515978157  4.3202255087408465
  5.6097139965692797  5.5454717521512231  4.3641175783060282
  5.3969934422949422  4.0357242756915079  5.3182870694160211
  5.1272128806129729  4.5679621471279237  4.3881991987427540
