 H  C 
 1.0000000000000000
     9.7025264203404955    0.0000000000000000    0.0000000000000000
     0.2737881760076271   10.0376644111874711    0.0000000000000000
     0.0342644753572266    0.2825264040285087    9.8373700163772870
   H   C
   4   1
Cartesian
  5.3432928454807183  4.1832301693150722  3.5458732225763701
  3.9758513824261170  4.9425184187042657  4.3143680758704770
  5.5305659762975807  5.7982025860720574  4.3525200280274881
  5.2577446790115800  4.3290116847590800  5.3039862324793452
  5.0262051029599624  4.8166261169180720  4.3786807020140834
