 H  C                                   
   1.0000000000000000     
     9.9044530921995211    0.0000000000000000    0.0000000000000000
    -0.0407568862243665    9.9665273119375861    0.0000000000000000
    -0.2225865534924387   -0.2524301182935911    9.9717067195784317
   H    C 
     4     1
Direct
  0.5310143768622799  0.4035309806829171  0.3550424986553907
  0.3962465857158717  0.4892245305987487  0.4388718186193223
  0.5546903323808854  0.5643521502840017  0.4487380201763176
  0.5251315496637680  0.4122498547123000  0.5369748255127864
  0.5031848864693502  0.4672429145609800  0.4460404340525842

 -0.24722453E-02  0.71303553E-02  0.19166827E-01
  0.13674536E-01 -0.69844304E-03 -0.28546726E-02
  0.83159376E-02  0.85939365E-03 -0.60562549E-02
 -0.13821127E-01  0.80118450E-02 -0.89027979E-02
 -0.47432369E-03 -0.12740947E-02 -0.11265520E-03

           1
   2.0000000000000000     
  0.14937663E+01  0.11372638E+00 -0.16556679E-17  0.00000000E+00
  0.53060784E+00  0.40505921E+00  0.35888674E+00
  0.39899437E+00  0.48906987E+00  0.43829926E+00
  0.55634285E+00  0.56449384E+00  0.44752333E+00
  0.52230696E+00  0.41381238E+00  0.53518921E+00
  0.50308754E+00  0.46698667E+00  0.44601784E+00
  0.52659327E-03  0.29740451E-03  0.12721435E-02
  0.31758366E-02  0.19411286E-03 -0.65860070E-04
  0.75862703E-03 -0.63863506E-04 -0.13190008E-02
 -0.33563235E-02  0.48906598E-03 -0.19806001E-02
 -0.91976800E-04 -0.76323358E-04  0.17428336E-03
  0.00000000E+00  0.00000000E+00  0.00000000E+00
  0.00000000E+00  0.00000000E+00  0.00000000E+00
  0.00000000E+00  0.00000000E+00  0.00000000E+00
  0.00000000E+00  0.00000000E+00  0.00000000E+00
  0.00000000E+00  0.00000000E+00  0.00000000E+00
