 H  C 
 1.0000000000000000
    10.2207072937853187    0.0000000000000000    0.0000000000000000
     0.2408316995151098   10.0879370867482354    0.0000000000000000
     0.0816783824878052    0.0544582867842653   10.2749712223961698
   H   C
   4   1
Cartesian
  5.6313183371932256  4.1254506817387737  3.7095693226289099
  4.1878026797462384  4.8660663982188606  4.5038624327826948
  5.8228726591850073  5.7291106368871931  4.5550263908921194
  5.5448809408369293  4.2310926178846504  5.5427403636869954
  5.2921371289974024  4.7377310698819910  4.5746396783511249
