 H  C                                   
   1.0000000000000000     
     9.7609010558043838    0.0000000000000000    0.0000000000000000
    -0.0685726427435743    9.7070192373167199    0.0000000000000000
     0.1169078292934146    0.0306724457442247    9.9426480911451236
   H    C 
     4     1
Direct
  0.5528810857669090  0.4155304108678334  0.3640562313252702
  0.3926379663118640  0.4775674114054038  0.4338450889460825
  0.5446015043220951  0.5683715501209338  0.4541930441945750
  0.5244151968452533  0.4137365539197396  0.5408446255238443
  0.5030761280268883  0.4668185822992300  0.4442878972226421

  0.72725364E-02 -0.17364684E-01 -0.84387494E-02
  0.20476571E-01 -0.16513223E-01 -0.57221704E-02
 -0.10708560E-01  0.99843631E-02  0.16329723E-01
  0.11040189E-01 -0.20359298E-02  0.11878394E-01
 -0.23379183E-02  0.21588106E-02 -0.11695277E-02

           1
   2.0000000000000000     
  0.27719209E+01  0.48703536E+00  0.82783394E-18  0.00000000E+00
  0.55436646E+00  0.41195802E+00  0.36235875E+00
  0.39682351E+00  0.47416872E+00  0.43269405E+00
  0.54238237E+00  0.57041831E+00  0.45747783E+00
  0.52664570E+00  0.41330953E+00  0.54323401E+00
  0.50260304E+00  0.46726412E+00  0.44405264E+00
 -0.71455513E-04 -0.57378713E-03  0.12319047E-02
  0.25620925E-02 -0.22870743E-02 -0.37955398E-03
 -0.22069490E-02 -0.55615106E-03  0.28192344E-02
  0.23609753E-02 -0.77123991E-03  0.37592116E-02
 -0.22018677E-03  0.34870139E-03 -0.61866595E-03
  0.00000000E+00  0.00000000E+00  0.00000000E+00
  0.00000000E+00  0.00000000E+00  0.00000000E+00
  0.00000000E+00  0.00000000E+00  0.00000000E+00
  0.00000000E+00  0.00000000E+00  0.00000000E+00
  0.00000000E+00  0.00000000E+00  0.00000000E+00
