 H  C 
 1.0000000000000000
     9.7609010558043838    0.0000000000000000    0.0000000000000000
    -0.0685726427435743    9.7070192373167199    0.0000000000000000
     0.1169078292934146    0.0306724457442247    9.9426480911451236
   H   C
   4   1
Cartesian
  5.2692736123583748  3.9586065551878478  3.5854820824030380
  3.8646808505363253  4.6799336427653051  4.3569114949859129
  5.4010208912821689  5.5016552741150839  4.4025578665431464
  5.1890689032299049  4.0603598186834988  5.3599435658776331
  4.9321262057426951  4.5497982085890092  4.4275277958348402
