 H  C                                   
   1.0000000000000000     
     9.7292325586000832    0.0000000000000000    0.0000000000000000
    -0.1637821863358105   10.0405890819218175    0.0000000000000000
    -0.1856867679869547    0.1021675818406524    9.8996994190349046
   H    C 
     4     1
Direct
  0.5411133512105377  0.4022993164739744  0.3637453234345208
  0.3976307403312774  0.4825835851731464  0.4290279946233245
  0.5548117755163421  0.5669708693526042  0.4441034782692622
  0.5290804173153139  0.4198137741601806  0.5400191438706821
  0.5026432925065181  0.4666426027959414  0.4455061523255298

 -0.10646140E-02 -0.15375274E-01 -0.10566452E-01
 -0.37200464E-01  0.10282659E-01 -0.22742939E-01
 -0.30038170E-02 -0.15671632E-01 -0.71486346E-02
 -0.19774448E-01  0.43229583E-02  0.19087001E-01
  0.50822865E-02  0.13688525E-02  0.17792877E-02

           1
   2.0000000000000000     
  0.14923879E+01  0.14564466E+00 -0.16556679E-17  0.00000000E+00
  0.54080257E+00  0.39925841E+00  0.36161062E+00
  0.38993116E+00  0.48467856E+00  0.42443332E+00
  0.55411443E+00  0.56386391E+00  0.44265927E+00
  0.52510289E+00  0.42063563E+00  0.54387522E+00
  0.50369943E+00  0.46691161E+00  0.44586562E+00
 -0.19278997E-03 -0.29439834E-02 -0.15148241E-02
 -0.30324472E-02  0.15332137E-02 -0.38993591E-02
 -0.78879832E-03 -0.18184169E-02 -0.90034716E-03
 -0.27867030E-02  0.15516781E-02  0.20257704E-02
  0.56620919E-03  0.13966435E-03  0.35706934E-03
  0.00000000E+00  0.00000000E+00  0.00000000E+00
  0.00000000E+00  0.00000000E+00  0.00000000E+00
  0.00000000E+00  0.00000000E+00  0.00000000E+00
  0.00000000E+00  0.00000000E+00  0.00000000E+00
  0.00000000E+00  0.00000000E+00  0.00000000E+00
