 H  C                                   
   1.0000000000000000     
    10.0760301444936182    0.0000000000000000    0.0000000000000000
    -0.0227258017229011    9.7892682374371667    0.0000000000000000
     0.2161812948755528   -0.2459628323200875   10.0057881429908218
   H    C 
     4     1
Direct
  0.5348173262441590  0.4224977626638307  0.3558543724887789
  0.3956065392256757  0.4818457122090579  0.4432652881066266
  0.5515096718178111  0.5673479106489767  0.4521959942755371
  0.5273565143011998  0.4097902637338769  0.5339467377106113
  0.5031583349126615  0.4661178798962270  0.4451831360870734

  0.21324676E-01 -0.30987873E-02 -0.15172565E-01
 -0.74893065E-02 -0.51797821E-02 -0.34553912E-02
 -0.60541392E-02 -0.83492046E-02  0.81782910E-02
  0.49709067E-03 -0.14959461E-02  0.14632841E-01
 -0.68922828E-03  0.15089268E-02 -0.34827872E-03

           1
   2.0000000000000000     
  0.19755483E+01  0.25034277E+00  0.82783394E-18  0.00000000E+00
  0.53911355E+00  0.42178846E+00  0.35282161E+00
  0.39413237E+00  0.48077010E+00  0.44257461E+00
  0.55026915E+00  0.56568320E+00  0.45383071E+00
  0.52739191E+00  0.40955812E+00  0.53687161E+00
  0.50302371E+00  0.46642441E+00  0.44511352E+00
  0.20328459E-02  0.22112452E-02  0.78690075E-03
 -0.34829740E-03 -0.27432005E-03 -0.38253446E-03
 -0.23715827E-02 -0.20276620E-02  0.74428651E-03
 -0.86637741E-03  0.72120898E-03  0.13465598E-02
  0.12933241E-03 -0.52491232E-04 -0.20774395E-03
  0.00000000E+00  0.00000000E+00  0.00000000E+00
  0.00000000E+00  0.00000000E+00  0.00000000E+00
  0.00000000E+00  0.00000000E+00  0.00000000E+00
  0.00000000E+00  0.00000000E+00  0.00000000E+00
  0.00000000E+00  0.00000000E+00  0.00000000E+00
