 H  C 
 1.0000000000000000
    10.0760301444936182    0.0000000000000000    0.0000000000000000
    -0.0227258017229011    9.7892682374371667    0.0000000000000000
     0.2161812948755528   -0.2459628323200875   10.0057881429908218
   H   C
   4   1
Cartesian
  5.4900758333558386  3.8920725433859316  3.6081264227775320
  4.0582274770291864  4.5920778820453494  4.3861293272237480
  5.6476675125505054  5.4217960495841213  4.4354129041082802
  5.4299711403597524  3.9445338692926319  5.3946834813348810
  5.1523976887346867  4.4641729603466542  4.4576222935808376
