 H  C                                   
   1.0000000000000000     
    10.2834804818427390    0.0000000000000000    0.0000000000000000
    -0.1177830453940275    9.8437103924729499    0.0000000000000000
    -0.0054341564050697    0.2810683572248631   10.0656757305084064
   H    C 
     4     1
Direct
  0.5399749708771251  0.4106118896055046  0.3588419013177552
  0.3983705634845630  0.4791865744961947  0.4449394327753327
  0.5439232115477785  0.5679697281860571  0.4438490360084010
  0.5353401440192368  0.4109323535402245  0.5391400315787344
  0.5026713700902936  0.4676353453784569  0.4451050232015873

 -0.71972058E-02  0.18411914E-01  0.63805091E-02
 -0.22909620E-01 -0.11930781E-01 -0.17775120E-02
  0.35793676E-02  0.25368471E-01 -0.36722298E-02
  0.62669899E-02  0.56827298E-02 -0.20521985E-02
  0.16868261E-02 -0.31248301E-02  0.93367014E-04

           1
   2.0000000000000000     
  0.20329558E+01  0.26685132E+00  0.82783394E-18  0.00000000E+00
  0.53861831E+00  0.41431654E+00  0.36010968E+00
  0.39388711E+00  0.47677262E+00  0.44458625E+00
  0.54467824E+00  0.57314481E+00  0.44311938E+00
  0.53657213E+00  0.41209859E+00  0.53873227E+00
  0.50299217E+00  0.46699993E+00  0.44512357E+00
 -0.60993361E-03  0.19079940E-02 -0.39206532E-03
 -0.41861549E-02 -0.45347994E-03 -0.18617589E-03
 -0.45459412E-05  0.29686756E-02 -0.48403970E-03
  0.18493602E-02  0.30816053E-03  0.98841633E-03
  0.24571428E-03 -0.39391809E-03  0.61497448E-05
  0.00000000E+00  0.00000000E+00  0.00000000E+00
  0.00000000E+00  0.00000000E+00  0.00000000E+00
  0.00000000E+00  0.00000000E+00  0.00000000E+00
  0.00000000E+00  0.00000000E+00  0.00000000E+00
  0.00000000E+00  0.00000000E+00  0.00000000E+00
