 H  C 
 1.0000000000000000
     9.9097687927374825    0.0000000000000000    0.0000000000000000
    -0.1836435309609998   10.0222095773716564    0.0000000000000000
    -0.2189447096337650   -0.2177278883241343    9.8524759545259606
   H   C
   4   1
Cartesian
  5.1832509647197984  4.0019526862025705  3.5559733233552344
  3.7180578889248204  4.7142733951331959  4.3222361043455040
  5.2665983772504799  5.5778842377805704  4.3603552761154898
  5.0436544826763763  4.0553421810694381  5.3097268372545772
  4.8014171950955120  4.5951711253821941  4.3896338491420526
