 H  C                                   
   1.0000000000000000     
    10.0847062576088700    0.0000000000000000    0.0000000000000000
    -0.1804808387462315   10.2506065868898961    0.0000000000000000
     0.0661393082923542   -0.2754846168635725    9.9975521021373019
   H    C 
     4     1
Direct
  0.5361974592245771  0.4061415110094884  0.3673401651739037
  0.3981711765615372  0.4719938440321917  0.4379965272336583
  0.5516197390092974  0.5644290478379544  0.4424446144929317
  0.5383771326611934  0.4252732738528122  0.5390978092008287
  0.5027924983751069  0.4681167954741065  0.4444550268918701

  0.25175522E-01 -0.11728807E-02  0.73982700E-02
 -0.44251220E-02  0.13682006E-01 -0.18112897E-02
 -0.72632037E-02  0.12926719E-02 -0.40688341E-03
 -0.68275646E-02 -0.44935355E-02 -0.12805462E-02
 -0.55446105E-03 -0.77497807E-03 -0.32466495E-03

           1
   2.0000000000000000     
  0.23568879E+01  0.40596236E+00  0.00000000E+00  0.00000000E+00
  0.54117718E+00  0.40595245E+00  0.36882018E+00
  0.39734356E+00  0.47465361E+00  0.43763418E+00
  0.55018431E+00  0.56467907E+00  0.44236322E+00
  0.53700896E+00  0.42438965E+00  0.53884164E+00
  0.50268023E+00  0.46796384E+00  0.44439008E+00
  0.35769022E-02  0.15662377E-02  0.31442103E-02
  0.64701894E-03  0.27891173E-02  0.43951279E-03
 -0.17835487E-02 -0.82671830E-03  0.43740806E-03
  0.40200552E-04 -0.55024779E-03 -0.64596251E-04
 -0.20652510E-03 -0.24797177E-03 -0.32940928E-03
  0.00000000E+00  0.00000000E+00  0.00000000E+00
  0.00000000E+00  0.00000000E+00  0.00000000E+00
  0.00000000E+00  0.00000000E+00  0.00000000E+00
  0.00000000E+00  0.00000000E+00  0.00000000E+00
  0.00000000E+00  0.00000000E+00  0.00000000E+00
