 H  C 
 1.0000000000000000
    10.0847062576088700    0.0000000000000000    0.0000000000000000
    -0.1804808387462315   10.2506065868898961    0.0000000000000000
     0.0661393082923542   -0.2754846168635725    9.9975521021373019
   H   C
   4   1
Cartesian
  5.3809078985904613  4.0695913416378078  3.6007811284458651
  3.9212400389371949  4.8028937572235462  4.3836232249754437
  5.4947810944217474  5.6729350005590771  4.4273739967804131
  5.2866399256724828  4.1196223358834958  5.3902972257384079
  5.0248022762825508  4.6751388316284004  4.4486526545313563
