 H  C                                   
   1.0000000000000000     
     9.7198272667031809    0.0000000000000000    0.0000000000000000
     0.2771585538928211   10.0330761918221558    0.0000000000000000
    -0.1006435923262184    0.1760881065619950    9.7064908351249617
   H    C 
     4     1
Direct
  0.5375528260521235  0.3998906657868897  0.3655426301449450
  0.3911093535900216  0.4858475143475093  0.4324855152869449
  0.5625542677752030  0.5557660622190547  0.4434493932048463
  0.5307512234987135  0.4141831308290477  0.5416197371426421
  0.5028171745229060  0.4682828866840678  0.4452818870082359

 -0.42844814E-02  0.74259328E-02  0.21820350E-02
  0.29671568E-01 -0.59556059E-02  0.12456125E-01
  0.47316903E-02  0.11831365E-01  0.13710808E-01
 -0.65803160E-02 -0.46812329E-02  0.98276771E-02
 -0.19597420E-02 -0.71771365E-03 -0.31784735E-02

           1
   2.0000000000000000     
  0.19345415E+01  0.27388878E+00  0.24835018E-17  0.00000000E+00
  0.53663390E+00  0.40136307E+00  0.36599223E+00
  0.39727644E+00  0.48461527E+00  0.43505207E+00
  0.56349130E+00  0.55807495E+00  0.44627447E+00
  0.52944581E+00  0.41321443E+00  0.54364471E+00
  0.50241090E+00  0.46815131E+00  0.44462697E+00
 -0.12356708E-02  0.24187561E-03  0.11435379E-02
  0.48463555E-02 -0.10615154E-02  0.35661091E-02
  0.48384917E-03 -0.46874166E-03  0.27244927E-02
 -0.48879244E-03 -0.13946298E-02  0.30944101E-02
 -0.30020327E-03  0.22337950E-03 -0.87657562E-03
  0.00000000E+00  0.00000000E+00  0.00000000E+00
  0.00000000E+00  0.00000000E+00  0.00000000E+00
  0.00000000E+00  0.00000000E+00  0.00000000E+00
  0.00000000E+00  0.00000000E+00  0.00000000E+00
  0.00000000E+00  0.00000000E+00  0.00000000E+00
