 H  C 
 1.0000000000000000
    10.0905628229542046    0.0000000000000000    0.0000000000000000
    -0.2942338639141885    9.8116317163684297    0.0000000000000000
    -0.0161318756851196    0.1681404556585337    9.7520433057464917
   H   C
   4   1
Cartesian
  5.3060305752738737  4.0572506538333748  3.5165852760178331
  3.8343105166010782  4.7875830919490241  4.2767800650874763
  5.4039144991493018  5.6266517011241506  4.3201208618069895
  5.2023921750357109  4.1737824797950065  5.2623097057197041
  4.9351399834019904  4.6563527965992684  4.3365772932373137
