 H  C                                   
   1.0000000000000000     
    10.2207072937853187    0.0000000000000000    0.0000000000000000
     0.2408316995151098   10.0879370867482354    0.0000000000000000
     0.0816783824878052    0.0544582867842653   10.2749712223961698
   H    C 
     4     1
Direct
  0.5265055943267277  0.4045434832067694  0.3642430007131466
  0.3987800789895687  0.4822163168217845  0.4474041282185615
  0.5547990381234467  0.5642716578256777  0.4424776396196191
  0.5397646033492449  0.4170933123650118  0.5373299952167858
  0.5027856889440063  0.4673152038933994  0.4444441999852478

 -0.51182341E-02 -0.27726842E-02 -0.13794094E-01
 -0.70669156E-02  0.40769961E-02  0.12212888E-02
  0.78360113E-02 -0.10738905E-01  0.43022110E-02
 -0.19301962E-02  0.12146105E-01 -0.20345528E-01
  0.52279864E-03 -0.22575236E-03  0.23824929E-02

           1
   2.0000000000000000     
  0.10591049E+01  0.29377816E-01  0.82783394E-18  0.00000000E+00
  0.52553812E+00  0.40400827E+00  0.36155801E+00
  0.39737630E+00  0.48302332E+00  0.44764185E+00
  0.55637598E+00  0.56213808E+00  0.44331506E+00
  0.53936130E+00  0.41952274E+00  0.53336978E+00
  0.50288540E+00  0.46726794E+00  0.44490795E+00
 -0.21340198E-02  0.98700875E-03 -0.45688268E-03
 -0.10040517E-02  0.64782787E-03 -0.66796321E-03
  0.20656305E-02 -0.10450547E-02  0.12097488E-02
  0.78596875E-03  0.19988571E-02 -0.21824802E-02
  0.23850819E-04 -0.21552236E-03  0.17463803E-03
  0.00000000E+00  0.00000000E+00  0.00000000E+00
  0.00000000E+00  0.00000000E+00  0.00000000E+00
  0.00000000E+00  0.00000000E+00  0.00000000E+00
  0.00000000E+00  0.00000000E+00  0.00000000E+00
  0.00000000E+00  0.00000000E+00  0.00000000E+00
