 H  C                                   
   1.0000000000000000     
     9.9905810067766225    0.0000000000000000    0.0000000000000000
     0.0654351245622974    9.8177212124964655    0.0000000000000000
     0.2927362863581744   -0.1262203537184952    9.8492717405100088
   H    C 
     4     1
Direct
  0.5141781586902954  0.3977067576153949  0.3513243517451794
  0.3992390497723011  0.4901472820789782  0.4480876689419004
  0.5601819537423708  0.5561233559274628  0.4331174574800798
  0.5319461911926927  0.4129960593317869  0.5408562864126296
  0.5035763660204581  0.4674142413743163  0.4456883625158994

  0.90502822E-02  0.84615332E-02  0.23849717E-01
  0.25573264E-02  0.77848357E-02 -0.82218840E-02
  0.55658934E-04 -0.75364891E-02 -0.10360516E-01
  0.75173279E-03  0.11448101E-02 -0.62190583E-02
 -0.10336359E-02 -0.82047205E-03  0.79239085E-04

           1
   2.0000000000000000     
  0.30831484E+01  0.56206288E+00  0.24835018E-17  0.00000000E+00
  0.51583632E+00  0.39949275E+00  0.35616729E+00
  0.39978967E+00  0.49171169E+00  0.44641813E+00
  0.56026497E+00  0.55456103E+00  0.43101364E+00
  0.53213226E+00  0.41321304E+00  0.53959344E+00
  0.50337007E+00  0.46724731E+00  0.44570445E+00
  0.49056048E-03  0.35953241E-03  0.24683077E-02
  0.13702146E-02  0.68590501E-04 -0.13728558E-02
 -0.12931440E-02 -0.47856959E-02 -0.15514858E-02
  0.68535173E-03 -0.26307393E-03 -0.76010608E-04
 -0.10431960E-03  0.38470126E-03  0.44296437E-04
  0.00000000E+00  0.00000000E+00  0.00000000E+00
  0.00000000E+00  0.00000000E+00  0.00000000E+00
  0.00000000E+00  0.00000000E+00  0.00000000E+00
  0.00000000E+00  0.00000000E+00  0.00000000E+00
  0.00000000E+00  0.00000000E+00  0.00000000E+00
