 H  C 
 1.0000000000000000
     9.9905810067766225    0.0000000000000000    0.0000000000000000
     0.0654351245622974    9.8177212124964655    0.0000000000000000
     0.2927362863581744   -0.1262203537184952    9.8492717405100088
   H   C
   4   1
Cartesian
  5.5073976494377028  3.9480962426103621  3.5513086477515188
  4.1049381042427244  4.6612322432142577  4.3183366188633210
  5.6861491492815128  5.5003941516842962  4.3579434810027733
  5.4711405222504430  4.0169819443111567  5.3096895076161337
  5.1843806247572433  4.5227556841634868  4.3838178613456558
