 H  C                                   
   1.0000000000000000     
     9.9097687927374825    0.0000000000000000    0.0000000000000000
    -0.1836435309609998   10.0222095773716564    0.0000000000000000
    -0.2189447096337650   -0.2177278883241343    9.8524759545259606
   H    C 
     4     1
Direct
  0.5422926418310856  0.4077866619710305  0.3614321675921703
  0.3948820272072270  0.4818253122188034  0.4306333871378734
  0.5534428141705960  0.5619443634454002  0.4453500914201720
  0.5226147123071520  0.4158900553099757  0.5396465527753418
  0.5029844352676078  0.4683548967637045  0.4458726831122775

  0.29722032E-02 -0.10026226E-01 -0.52935812E-02
  0.22511364E-02  0.13128085E-01  0.37272441E-02
 -0.75988812E-02  0.12016830E-01 -0.13471765E-01
 -0.14169897E-02 -0.16374461E-01  0.75519584E-02
  0.31575483E-03  0.10455186E-03  0.62327398E-03

           1
   2.0000000000000000     
  0.17980385E+01  0.21389380E+00 -0.16556679E-17  0.00000000E+00
  0.54283124E+00  0.40576252E+00  0.36035760E+00
  0.39540192E+00  0.48446155E+00  0.43139000E+00
  0.55189212E+00  0.56428299E+00  0.44261540E+00
  0.52230267E+00  0.41265572E+00  0.54117956E+00
  0.50305139E+00  0.46837851E+00  0.44599920E+00
  0.28779853E-03 -0.65421966E-03 -0.13093501E-02
  0.82880341E-03  0.23613225E-02  0.74703114E-03
 -0.33753258E-02 -0.11448001E-03 -0.34083380E-02
 -0.91274398E-03 -0.27444593E-02  0.10331310E-02
  0.26404694E-03  0.95898459E-04  0.24456964E-03
  0.00000000E+00  0.00000000E+00  0.00000000E+00
  0.00000000E+00  0.00000000E+00  0.00000000E+00
  0.00000000E+00  0.00000000E+00  0.00000000E+00
  0.00000000E+00  0.00000000E+00  0.00000000E+00
  0.00000000E+00  0.00000000E+00  0.00000000E+00
