 H  C                                   
   1.0000000000000000     
     9.9298112968480332    0.0000000000000000    0.0000000000000000
    -0.1402696926068610    9.8219789504789912    0.0000000000000000
     0.1636039147635858    0.2414937170888479   10.1571465473057270
   H    C 
     4     1
Direct
  0.5502044836269140  0.4089915947878469  0.3619830787448719
  0.3939136439720060  0.4687695524001512  0.4400547465609267
  0.5444246082316754  0.5736965224028527  0.4424202166685867
  0.5380853745037437  0.4201847239926478  0.5380215455833562
  0.5019693998028133  0.4666814819785866  0.4456477454830004

  0.83247173E-03  0.55851866E-03  0.24945135E-01
 -0.18058810E-01 -0.10945526E-01  0.14260755E-01
 -0.96789052E-02 -0.92635947E-02  0.42890580E-02
  0.92978046E-02  0.39511336E-02  0.36852679E-02
  0.14659428E-02  0.13070909E-02 -0.39280839E-02

           1
   2.0000000000000000     
  0.18007476E+01  0.22935209E+00  0.82783394E-18  0.00000000E+00
  0.55029113E+00  0.40898456E+00  0.36689492E+00
  0.39019763E+00  0.46647173E+00  0.44286277E+00
  0.54243429E+00  0.57178946E+00  0.44326476E+00
  0.53995724E+00  0.42097143E+00  0.53874720E+00
  0.50228143E+00  0.46696666E+00  0.44487428E+00
  0.12538824E-02 -0.22019714E-02  0.34933227E-02
 -0.19677194E-02 -0.18021561E-02  0.20834801E-02
 -0.13454459E-03  0.18883429E-02  0.10417856E-02
  0.20687315E-02  0.12816637E-02  0.34210680E-03
 -0.10160269E-03  0.69446423E-04 -0.57952669E-03
  0.00000000E+00  0.00000000E+00  0.00000000E+00
  0.00000000E+00  0.00000000E+00  0.00000000E+00
  0.00000000E+00  0.00000000E+00  0.00000000E+00
  0.00000000E+00  0.00000000E+00  0.00000000E+00
  0.00000000E+00  0.00000000E+00  0.00000000E+00
