 H  C 
 1.0000000000000000
     9.9298112968480332    0.0000000000000000    0.0000000000000000
    -0.1402696926068610    9.8219789504789912    0.0000000000000000
     0.1636039147635858    0.2414937170888479   10.1571465473057270
   H   C
   4   1
Cartesian
  5.3487367654621316  4.0803303456517694  3.6655337116958586
  3.9169903756868352  4.8310560297948868  4.4517386284587577
  5.4750520752235836  5.6610440619159084  4.4981540408249945
  5.2739445262998581  4.2210087565916439  5.4763381421117208
  5.0034323770357174  4.6930428292920885  4.5276036118169269
