 H  C                                   
   1.0000000000000000     
    10.2294218386365667    0.0000000000000000    0.0000000000000000
     0.2194931541630160   10.1890793978678325    0.0000000000000000
    -0.2170827045608687   -0.1641978341618307   10.2583261788819016
   H    C 
     4     1
Direct
  0.5409301062170835  0.4020590268892264  0.3662812978015109
  0.3867869869342763  0.4774064099909021  0.4333909436264305
  0.5450649839231849  0.5663868039816135  0.4485645168921662
  0.5269164582840881  0.4197955395772551  0.5392502844795770
  0.5040747153881139  0.4676446879915392  0.4445948067425068

  0.60946156E-02  0.81849754E-02 -0.11955854E-01
  0.13411253E-01 -0.76614777E-02 -0.43569210E-02
  0.86546043E-02  0.54780139E-02 -0.44403238E-03
 -0.68755705E-04  0.14368507E-02  0.32578558E-02
 -0.23388325E-02 -0.61929585E-03  0.11238824E-02

           1
   2.0000000000000000     
  0.35810390E+01  0.78422153E+00  0.24835018E-17  0.00000000E+00
  0.54203856E+00  0.40362808E+00  0.36395034E+00
  0.38942362E+00  0.47588886E+00  0.43254150E+00
  0.54673220E+00  0.56746068E+00  0.44847795E+00
  0.52691022E+00  0.42008781E+00  0.53988545E+00
  0.50362462E+00  0.46752666E+00  0.44481392E+00
  0.79362395E-03  0.11753998E-02 -0.14523397E-02
 -0.21380251E-02 -0.98322168E-03 -0.15631711E-02
  0.17008689E-02  0.12494969E-02  0.12141810E-03
 -0.26644287E-03 -0.27168311E-03  0.92209530E-03
 -0.74952077E-05 -0.97410028E-04  0.16418262E-03
  0.00000000E+00  0.00000000E+00  0.00000000E+00
  0.00000000E+00  0.00000000E+00  0.00000000E+00
  0.00000000E+00  0.00000000E+00  0.00000000E+00
  0.00000000E+00  0.00000000E+00  0.00000000E+00
  0.00000000E+00  0.00000000E+00  0.00000000E+00
