 H  C 
 1.0000000000000000
    10.2294218386365667    0.0000000000000000    0.0000000000000000
     0.2194931541630160   10.1890793978678325    0.0000000000000000
    -0.2170827045608687   -0.1641978341618307   10.2583261788819016
   H   C
   4   1
Cartesian
  5.5183716147626525  4.0840399119385395  3.7011247832903273
  4.0448347158236064  4.8147689976029104  4.4966361018736976
  5.6792386897714806  5.6879252258101287  4.5426116697271857
  5.3821965507139966  4.1478874487669630  5.5330866870072208
  5.1502503414305867  4.6902946497511131  4.5660575478877963
