POSCAR file written by OVITO            
   1.0000000000000000     
    10.0000000000000000    0.0000000000000000    0.0000000000000000
     0.0000000000000000   10.0000000000000000    0.0000000000000000
     0.0000000000000000    0.0000000000000000   10.0000000000000000
   H    C 
     4     1
Direct
  0.5424991699764936  0.3993419769243872  0.3500354325193430
  0.3810241062794186  0.4819442731819270  0.4376282953345587
  0.5581697994593821  0.5776644975298262  0.4423945777025189
  0.5312889104545405  0.4100881551600564  0.5508735543255834
  0.5032403343241459  0.4672627288969992  0.4452336619379964

  0.00000000E+00  0.00000000E+00  0.00000000E+00
  0.00000000E+00  0.00000000E+00  0.00000000E+00
  0.00000000E+00  0.00000000E+00  0.00000000E+00
  0.00000000E+00  0.00000000E+00  0.00000000E+00
  0.00000000E+00  0.00000000E+00  0.00000000E+00
