POSCAR file written by OVITO
1
10.0 0.0 0.0
0.0 10.0 0.0
0.0 0.0 10.0
H C 
4 1 
Cartesian
5.4249916 3.9934196 3.5003543
3.810241 4.8194428 4.3762832
5.581698 5.7766447 4.4239459
5.3128891 4.1008816 5.5087357
5.0324035 4.672627 4.4523368
