 H  C                                   
   1.0000000000000000     
    10.0451025426546376    0.0000000000000000    0.0000000000000000
    -0.0303831231684148    9.7068703759228718    0.0000000000000000
    -0.2948578302086632    0.2900287464766931   10.2754586532988679
   H    C 
     4     1
Direct
  0.5434737429263370  0.4106550510998104  0.3596079386819529
  0.3956739130598739  0.4789152443203080  0.4310771796515966
  0.5497961160752923  0.5654120130744866  0.4568526135169184
  0.5270135747012274  0.4090757551383342  0.5372426186454980
  0.5027796008862276  0.4682872914075479  0.4443128997863490

 -0.13577647E-02  0.20942248E-01  0.95823649E-02
  0.19617420E-02  0.11331800E-01  0.39119586E-02
 -0.98601948E-02 -0.10383914E-03 -0.66335785E-02
  0.17894082E-02  0.56019006E-02  0.26958339E-03
  0.62166425E-03 -0.31447930E-02 -0.59364985E-03

           1
   2.0000000000000000     
  0.21120307E+01  0.28204347E+00  0.00000000E+00  0.00000000E+00
  0.54327104E+00  0.41491426E+00  0.36147304E+00
  0.39609384E+00  0.48122729E+00  0.43183860E+00
  0.54779508E+00  0.56542920E+00  0.45556146E+00
  0.52737488E+00  0.41022840E+00  0.53729509E+00
  0.50289803E+00  0.46764279E+00  0.44419735E+00
  0.93679944E-03  0.20701891E-02 -0.89154293E-03
  0.61693300E-03  0.24719637E-02  0.14752851E-02
 -0.26242824E-02 -0.26835908E-02 -0.11821387E-02
  0.56464490E-04  0.88329447E-03  0.12800739E-02
  0.84429724E-04 -0.22827879E-03 -0.56754417E-04
  0.00000000E+00  0.00000000E+00  0.00000000E+00
  0.00000000E+00  0.00000000E+00  0.00000000E+00
  0.00000000E+00  0.00000000E+00  0.00000000E+00
  0.00000000E+00  0.00000000E+00  0.00000000E+00
  0.00000000E+00  0.00000000E+00  0.00000000E+00
