 H  C 
 1.0000000000000000
    10.0451025426546376    0.0000000000000000    0.0000000000000000
    -0.0303831231684148    9.7068703759228718    0.0000000000000000
    -0.2948578302086632    0.2900287464766931   10.2754586532988679
   H   C
   4   1
Cartesian
  5.2842725297724229  4.0571944155191266  3.7086724884168523
  3.8179480577137004  4.7904501523001821  4.5068732888367640
  5.3919760623540602  5.6105095363645976  4.5477808899762033
  5.1345695230719439  4.1977913476008073  5.5402214812838411
  4.9084691591703216  4.6707927643805176  4.5685068042587025
