 H  C                                   
   1.0000000000000000     
    10.0164875030961991    0.0000000000000000    0.0000000000000000
    -0.0352953622507085    9.9230148121023340    0.0000000000000000
     0.0643381243822926    0.0149123316808693   10.2354401720028889
   H    C 
     4     1
Direct
  0.5443142965250760  0.4042223877842946  0.3681057412936771
  0.3940850863403888  0.4691029384635936  0.4315675523935129
  0.5497768497378426  0.5682416070948880  0.4412539376375673
  0.5289566791689785  0.4183089470356589  0.5382084467291243
  0.5028089259883500  0.4674038764113668  0.4457397446606159

 -0.65999463E-03  0.13386047E-01  0.26288682E-01
 -0.94260652E-02 -0.28335348E-02 -0.14392806E-01
 -0.50943876E-02  0.45320107E-02  0.35807674E-02
 -0.15785160E-01  0.11027968E-01 -0.14858551E-01
  0.25781040E-02 -0.21740481E-02 -0.51460499E-04

           1
   2.0000000000000000     
  0.16567510E+01  0.24276469E+00  0.00000000E+00  0.00000000E+00
  0.54415900E+00  0.40691265E+00  0.37324254E+00
  0.39221904E+00  0.46853606E+00  0.42875521E+00
  0.54875837E+00  0.56915399E+00  0.44195362E+00
  0.52583134E+00  0.42053602E+00  0.53530509E+00
  0.50332222E+00  0.46696571E+00  0.44572969E+00
 -0.10943355E-03  0.33486702E-02  0.59641084E-02
 -0.15535560E-02 -0.15404765E-02 -0.27658043E-02
 -0.83818902E-03  0.10344822E-02  0.21357164E-04
 -0.24077942E-02  0.31980682E-02 -0.26922537E-02
  0.40870642E-03 -0.50293432E-03 -0.43910377E-04
  0.00000000E+00  0.00000000E+00  0.00000000E+00
  0.00000000E+00  0.00000000E+00  0.00000000E+00
  0.00000000E+00  0.00000000E+00  0.00000000E+00
  0.00000000E+00  0.00000000E+00  0.00000000E+00
  0.00000000E+00  0.00000000E+00  0.00000000E+00
