 H  C 
 1.0000000000000000
    10.0164875030961991    0.0000000000000000    0.0000000000000000
    -0.0352953622507085    9.9230148121023340    0.0000000000000000
     0.0643381243822926    0.0149123316808693   10.2354401720028889
   H   C
   4   1
Cartesian
  5.3995712994906215  4.0421116243171156  3.6904995036304458
  3.9699979575192135  4.7706954173752818  4.4937704219080059
  5.5442140731706422  5.6202462673314688  4.5317280543665728
  5.3130630573973381  4.1377784497305168  5.5208989006058866
  5.0507716227031327  4.6373156468480214  4.5601228492675343
