 H  C                                   
   1.0000000000000000     
     9.7568348190837568    0.0000000000000000    0.0000000000000000
     0.1088480873037029    9.9322566536068901    0.0000000000000000
     0.0089003925744728    0.1685827794396751   10.2221052355433972
   H    C 
     4     1
Direct
  0.5397111112641179  0.4024254428635589  0.3685213388315193
  0.3903161947296189  0.4923186431159521  0.4305195245598616
  0.5600967867311661  0.5600105050910934  0.4508980369861707
  0.5207617032317072  0.4138559574557551  0.5413138648606268
  0.5035085038215191  0.4673119880866936  0.4443961255912663

  0.10005033E-01 -0.15226122E-01 -0.48436058E-02
  0.27403307E-01  0.21882507E-02 -0.52660951E-02
 -0.20478417E-02 -0.67628343E-02 -0.12764763E-01
 -0.66511163E-02  0.17736458E-01 -0.20164606E-01
 -0.23902575E-02  0.17186307E-03  0.35833045E-02

           1
   2.0000000000000000     
  0.21427135E+01  0.29364730E+00 -0.16556679E-17  0.00000000E+00
  0.54179688E+00  0.39937553E+00  0.36757367E+00
  0.39592928E+00  0.49277677E+00  0.42948919E+00
  0.55969401E+00  0.55869110E+00  0.44840055E+00
  0.51936134E+00  0.41749441E+00  0.53736857E+00
  0.50301765E+00  0.46733470E+00  0.44509721E+00
  0.15112533E-02 -0.13689776E-02 -0.30924212E-03
  0.24103836E-02  0.43112783E-03 -0.70534362E-03
 -0.31679714E-04 -0.11892342E-02 -0.22120882E-02
 -0.25603439E-02  0.28399503E-02 -0.20493307E-02
 -0.11069963E-03 -0.59351123E-04  0.43926440E-03
  0.00000000E+00  0.00000000E+00  0.00000000E+00
  0.00000000E+00  0.00000000E+00  0.00000000E+00
  0.00000000E+00  0.00000000E+00  0.00000000E+00
  0.00000000E+00  0.00000000E+00  0.00000000E+00
  0.00000000E+00  0.00000000E+00  0.00000000E+00
