 H  C 
 1.0000000000000000
     9.7568348190837568    0.0000000000000000    0.0000000000000000
     0.1088480873037029    9.9322566536068901    0.0000000000000000
     0.0089003925744728    0.1685827794396751   10.2221052355433972
   H   C
   4   1
Cartesian
  5.2987493110402619  4.1035465355040950  3.6847387531586420
  3.9041773617881610  4.8383830744259440  4.4753329068521142
  5.4504461690512924  5.6940137905247674  4.5225364874137899
  5.2088544769520784  4.2286615004421257  5.5093918895498559
  4.9655549379917510  4.7161211263140839  4.5525194472626183
