POSCAR file written by OVITO
1
7.3396392 0.0 0.0
0.0941803 7.3399305 0.0
-0.0308043 -0.0074531 7.1971068
Cu
16
Cartesian
3.73804 7.2810702 -0.122245
7.5472698 7.4242301 3.5100701
3.64643 3.8172901 3.3773899
3.63514 3.4743099 -0.0509737
7.37042 3.83094 6.9770498
5.67415 1.63668 5.5753699
1.85973 5.34657 5.5228901
1.8859 2.0481701 5.36483
5.5120201 1.7025501 1.49852
-0.0115295 -0.101843 0.0945759
2.05826 1.72658 1.85157
5.5400601 5.6260901 5.50314
3.52632 -0.131571 3.7358699
7.2544599 3.8620502 3.7572501
1.8074501 5.6585999 1.93344
5.5546899 5.4706402 1.86665
