 H  C 
 1.0000000000000000
     9.7781353741066788    0.0000000000000000    0.0000000000000000
     0.2560335353106933    9.9696486184748938    0.0000000000000000
     0.1610951001932761    0.2635574855006934   10.1290632931691000
   H   C
   4   1
Cartesian
  5.4252444018618649  4.1500583294915305  3.6489379330171454
  4.0554856624672144  4.9051815525525573  4.4434274227406343
  5.6137378036929491  5.7553402517696037  4.4812413382923344
  5.3574108206436435  4.2946139565529871  5.4597898466913986
  5.1122904811344254  4.7754649435805101  4.5098303484324038
