 H  C                                   
   1.0000000000000000     
     9.8451754118742265    0.0000000000000000    0.0000000000000000
     0.0276036766089254   10.2154527604978131    0.0000000000000000
    -0.1436797554004911   -0.1728592767605895   10.1797579177559392
   H    C 
     4     1
Direct
  0.5295109587803212  0.3850475639382718  0.3771700398184411
  0.3969908701280365  0.4944849021206689  0.4319449051615869
  0.5712196532853266  0.5514123416655375  0.4341478179387073
  0.5225288770436276  0.4338137426755204  0.5469885276031521
  0.5027945205867524  0.4674917034051442  0.4444472668140104

 -0.12301380E-01  0.85237191E-02  0.18229334E-02
  0.50611942E-03  0.23092730E-03  0.12621772E-02
 -0.69471781E-02 -0.69891726E-02 -0.11386766E-01
  0.14926437E-02  0.14570576E-01 -0.89049212E-02
  0.14361665E-02 -0.13600907E-02  0.14325682E-02

           1
   2.0000000000000000     
  0.30727489E+01  0.58433341E+00  0.82783394E-18  0.00000000E+00
  0.52701252E+00  0.38672241E+00  0.37752819E+00
  0.39709717E+00  0.49453431E+00  0.43219288E+00
  0.56977966E+00  0.55000613E+00  0.43191068E+00
  0.52279865E+00  0.43663679E+00  0.54523899E+00
  0.50309111E+00  0.46723018E+00  0.44472872E+00
 -0.22946979E-02  0.63358428E-03  0.80143762E-04
  0.10723244E-02 -0.33638729E-03  0.24068947E-03
 -0.47840739E-03 -0.24232686E-02 -0.18268080E-02
  0.35467162E-03  0.37024203E-02 -0.10225630E-02
  0.11207304E-03 -0.13124209E-03  0.21051851E-03
  0.00000000E+00  0.00000000E+00  0.00000000E+00
  0.00000000E+00  0.00000000E+00  0.00000000E+00
  0.00000000E+00  0.00000000E+00  0.00000000E+00
  0.00000000E+00  0.00000000E+00  0.00000000E+00
  0.00000000E+00  0.00000000E+00  0.00000000E+00
