 H  C 
 1.0000000000000000
     9.8451754118742265    0.0000000000000000    0.0000000000000000
     0.0276036766089254   10.2154527604978131    0.0000000000000000
    -0.1436797554004911   -0.1728592767605895   10.1797579177559392
   H   C
   4   1
Cartesian
  5.2564823752047927  4.0903122925494291  3.6641648758132837
  3.8297723462354649  4.8275956861610663  4.4643202209016319
  5.3903049959880152  5.6967080323349224  4.5033834531992261
  5.1428365396490880  4.1599843575875530  5.4884837444284331
  4.9045229241141639  4.6959228087007396  4.5330220195684587
