 H  C                                   
   1.0000000000000000     
     9.7793265516998478    0.0000000000000000    0.0000000000000000
    -0.0826684968719014    9.8927426870998705    0.0000000000000000
     0.1219920622422940   -0.1431870403425912   10.1945039475333239
   H    C 
     4     1
Direct
  0.5416170148920854  0.4038098748117500  0.3598386243135054
  0.3956915230416146  0.4909071416775025  0.4264239962664040
  0.5606214011986169  0.5611166521754668  0.4481843251294397
  0.5247377305680715  0.4150983832889580  0.5458917066553934
  0.5024930833810825  0.4670569936604674  0.4452761879612977

 -0.83411665E-03 -0.15356915E-02  0.43227662E-02
  0.55921985E-02 -0.40713038E-02  0.11072533E-01
 -0.33562211E-02 -0.73307853E-02  0.50155222E-02
 -0.48707195E-02  0.77736204E-02 -0.16442016E-01
  0.28880682E-03  0.42995255E-03 -0.33043092E-03

           1
   2.0000000000000000     
  0.19070004E+01  0.21906858E+00  0.82783394E-18  0.00000000E+00
  0.54143333E+00  0.40351168E+00  0.36068668E+00
  0.39680141E+00  0.49011549E+00  0.42859625E+00
  0.55991033E+00  0.55964884E+00  0.44916829E+00
  0.52379473E+00  0.41662328E+00  0.54266604E+00
  0.50255368E+00  0.46714298E+00  0.44521136E+00
  0.48630789E-03 -0.72103031E-03 -0.88963962E-03
  0.14311810E-02 -0.52346196E-03  0.14415240E-02
 -0.64996329E-03 -0.24409337E-02  0.55475079E-03
  0.39772723E-03  0.51256437E-03  0.12809239E-02
 -0.13864398E-03  0.26416298E-03 -0.19878104E-03
  0.00000000E+00  0.00000000E+00  0.00000000E+00
  0.00000000E+00  0.00000000E+00  0.00000000E+00
  0.00000000E+00  0.00000000E+00  0.00000000E+00
  0.00000000E+00  0.00000000E+00  0.00000000E+00
  0.00000000E+00  0.00000000E+00  0.00000000E+00
