 H  C 
 1.0000000000000000
     9.7793265516998478    0.0000000000000000    0.0000000000000000
    -0.0826684968719014    9.8927426870998705    0.0000000000000000
     0.1219920622422940   -0.1431870403425912   10.1945039475333239
   H   C
   4   1
Cartesian
  5.2743054649288563  3.9712861273062261  3.6774874425577115
  3.8685682538436743  4.6933253370012169  4.4625992649108843
  5.4129495997984618  5.5284400869876285  4.5061331175651045
  5.2012467645213096  4.0461837499006155  5.4965390905270732
  4.9368948006896538  4.5579234938897368  4.5399452038382249
