 H  C                                   
   1.0000000000000000     
     9.7747182061097853    0.0000000000000000    0.0000000000000000
    -0.2353626976161965   10.1109630332120606    0.0000000000000000
    -0.2135812299939590   -0.2087898181850080   10.2938239789429726
   H    C 
     4     1
Direct
  0.5360566674034561  0.4043717387852709  0.3649877589329457
  0.3922324140812889  0.4818519095441425  0.4338567348696789
  0.5513921826986625  0.5643090556763689  0.4439939691352454
  0.5343540356276198  0.4187843514151289  0.5427947035811422
  0.5033063031556598  0.4673404540524689  0.4448981391525293

  0.14586470E-02 -0.25755150E-01 -0.11256240E-02
  0.10738458E-01  0.35114700E-02  0.18725080E-01
 -0.65701764E-03  0.76968352E-02  0.36367025E-02
 -0.77628841E-02  0.13524660E-01 -0.23887848E-01
 -0.31447864E-03  0.85104038E-04  0.22077173E-03

           1
   2.0000000000000000     
  0.22884415E+01  0.31688693E+00  0.82783394E-18  0.00000000E+00
  0.53622756E+00  0.39927272E+00  0.36476906E+00
  0.39452763E+00  0.48262162E+00  0.43749485E+00
  0.55131020E+00  0.56584612E+00  0.44470055E+00
  0.53272637E+00  0.42136376E+00  0.53815350E+00
  0.50324332E+00  0.46735817E+00  0.44494103E+00
 -0.10402596E-02 -0.31334837E-02  0.14409274E-02
  0.89130111E-03  0.10908436E-02  0.30601058E-02
 -0.11366434E-02  0.48453792E-03  0.98313696E-03
 -0.60340155E-03  0.21551801E-03 -0.15130765E-02
  0.15727278E-03  0.11177955E-03 -0.33062140E-03
  0.00000000E+00  0.00000000E+00  0.00000000E+00
  0.00000000E+00  0.00000000E+00  0.00000000E+00
  0.00000000E+00  0.00000000E+00  0.00000000E+00
  0.00000000E+00  0.00000000E+00  0.00000000E+00
  0.00000000E+00  0.00000000E+00  0.00000000E+00
