 H  C                                   
   1.0000000000000000     
    10.1449280942019016    0.0000000000000000    0.0000000000000000
    -0.1128434523043857   10.0111982174114686    0.0000000000000000
     0.1685112834572081   -0.2553694328689577    9.8549561657200702
   H    C 
     4     1
Direct
  0.5429110220667320  0.4011724034454453  0.3705662596810538
  0.3905097192813261  0.4704761618889761  0.4411538522947439
  0.5520789515584203  0.5659953557049702  0.4398020269171753
  0.5245529190403256  0.4162612745340947  0.5390254821126750
  0.5033994955169582  0.4690006691288823  0.4444687178640671

 -0.72822928E-02 -0.35227533E-02 -0.56599276E-02
  0.41117339E-02  0.12619703E-02 -0.26123295E-02
 -0.69721682E-02 -0.13758649E-01 -0.11598067E-01
 -0.37724647E-02  0.36822747E-02 -0.32851825E-03
  0.11585373E-02  0.10271549E-02  0.16816953E-02

           1
   2.0000000000000000     
  0.15648382E+01  0.20920555E+00  0.00000000E+00  0.00000000E+00
  0.54148630E+00  0.40043934E+00  0.36941761E+00
  0.39133178E+00  0.47071475E+00  0.44062370E+00
  0.55071229E+00  0.56318666E+00  0.43744827E+00
  0.52381848E+00  0.41699521E+00  0.53895881E+00
  0.50362460E+00  0.46921458E+00  0.44481001E+00
 -0.19723457E-02  0.56339085E-03  0.31799898E-02
 -0.14069566E-02 -0.72957734E-03 -0.11435492E-02
 -0.17594789E-02 -0.35167166E-02 -0.34791826E-02
 -0.16071628E-02  0.44420335E-03 -0.11163668E-02
  0.56164715E-03  0.26964447E-03  0.21306376E-03
  0.00000000E+00  0.00000000E+00  0.00000000E+00
  0.00000000E+00  0.00000000E+00  0.00000000E+00
  0.00000000E+00  0.00000000E+00  0.00000000E+00
  0.00000000E+00  0.00000000E+00  0.00000000E+00
  0.00000000E+00  0.00000000E+00  0.00000000E+00
