 H  C 
 1.0000000000000000
     9.7588855163144874    0.0000000000000000    0.0000000000000000
    -0.0147352157827919   10.0406926271354244    0.0000000000000000
    -0.0029182511697062   -0.0508822068552198    9.8439875511727504
   H   C
   4   1
Cartesian
  5.2464164975518859  4.0725894135483562  3.5574270072956504
  3.8464182457251392  4.7967301715456721  4.3192951254091749
  5.3800842593892497  5.6644075256337256  4.3572528637825263
  5.1459205177135594  4.1525212504809836  5.3062218926311751
  4.9053102944837086  4.6645578800674219  4.3848386411062474
