 H  C                                   
   1.0000000000000000     
     9.7588855163144874    0.0000000000000000    0.0000000000000000
    -0.0147352157827919   10.0406926271354244    0.0000000000000000
    -0.0029182511697062   -0.0508822068552198    9.8439875511727504
   H    C 
     4     1
Direct
  0.5404991054605648  0.4023342290218788  0.3616643893242911
  0.4003167944022004  0.4839933052440765  0.4315054386166117
  0.5520581552527734  0.5669295675334149  0.4434939783508904
  0.5288545920131820  0.4159135411769551  0.5446334998784891
  0.5028213812826728  0.4668984423820178  0.4454765502398365

  0.18732619E-02 -0.29089491E-02  0.95776946E-02
 -0.28902018E-01  0.17632120E-02  0.88043442E-02
 -0.29740145E-02  0.55219806E-02 -0.17369206E-02
 -0.29650574E-01  0.25377715E-02 -0.14299465E-01
  0.49665593E-02 -0.57564025E-03 -0.19529210E-03

           1
   2.0000000000000000     
  0.29044454E+01  0.48077534E+00  0.00000000E+00  0.00000000E+00
  0.54088274E+00  0.40176466E+00  0.36361029E+00
  0.39439465E+00  0.48435358E+00  0.43329421E+00
  0.55145021E+00  0.56802770E+00  0.44314109E+00
  0.52277783E+00  0.41640432E+00  0.54172828E+00
  0.50383905E+00  0.46678358E+00  0.44543687E+00
  0.33374746E-03 -0.88143028E-03 -0.33701572E-03
  0.43275144E-03  0.28205072E-03  0.26176483E-02
 -0.22376470E-02  0.11738075E-02 -0.10607130E-02
 -0.36637331E-02 -0.10719269E-02  0.78887479E-03
  0.42751488E-03  0.41420280E-04 -0.16724622E-03
  0.00000000E+00  0.00000000E+00  0.00000000E+00
  0.00000000E+00  0.00000000E+00  0.00000000E+00
  0.00000000E+00  0.00000000E+00  0.00000000E+00
  0.00000000E+00  0.00000000E+00  0.00000000E+00
  0.00000000E+00  0.00000000E+00  0.00000000E+00
