 H  C                                   
   1.0000000000000000     
     9.9291884556336321    0.0000000000000000    0.0000000000000000
    -0.2870499441818287   10.1492599526458402    0.0000000000000000
     0.0745417300353780   -0.2493850617688469    9.9713293434013490
   H    C 
     4     1
Direct
  0.5367654541248472  0.4021425038695911  0.3642722112318280
  0.3966809136032205  0.4786202939357292  0.4316822959215971
  0.5545607926333007  0.5641725298621436  0.4431439242524432
  0.5265277868281987  0.4184756672346440  0.5397114176763715
  0.5035595350578342  0.4672593181221741  0.4458935126999099

  0.23574625E-01  0.80386489E-02 -0.17831145E-01
 -0.94545879E-02  0.13389216E-01 -0.18575781E-02
  0.17285777E-02  0.12197056E-01 -0.25299698E-03
  0.19446990E-02  0.15540460E-02 -0.36062873E-03
 -0.14814182E-02 -0.29288957E-02  0.16903130E-02

           1
   2.0000000000000000     
  0.16314443E+01  0.14122549E+00 -0.16556679E-17  0.00000000E+00
  0.54158411E+00  0.40363871E+00  0.36069573E+00
  0.39485532E+00  0.48124960E+00  0.43130971E+00
  0.55497880E+00  0.56657482E+00  0.44309318E+00
  0.52692885E+00  0.41878013E+00  0.53963908E+00
  0.50324215E+00  0.46669048E+00  0.44623255E+00
  0.40925725E-02  0.20346946E-02 -0.32681742E-02
 -0.16800842E-02  0.24648080E-02 -0.34534698E-03
 -0.18218184E-03  0.16410093E-02 -0.17354491E-03
  0.67523948E-04  0.48373174E-03 -0.10153395E-02
 -0.19131050E-03 -0.55151475E-03  0.39983395E-03
  0.00000000E+00  0.00000000E+00  0.00000000E+00
  0.00000000E+00  0.00000000E+00  0.00000000E+00
  0.00000000E+00  0.00000000E+00  0.00000000E+00
  0.00000000E+00  0.00000000E+00  0.00000000E+00
  0.00000000E+00  0.00000000E+00  0.00000000E+00
