POSCAR file written by OVITO            
   1.0000000000000000     
    10.0000000000000000    0.0000000000000000    0.0000000000000000
     0.0000000000000000   10.0000000000000000    0.0000000000000000
     0.0000000000000000    0.0000000000000000   10.0000000000000000
   H    C 
     4     1
Direct
  0.5227381288428741  0.3978269993379729  0.3618063233589930
  0.3937771289451976  0.4852330633685538  0.4506507356450699
  0.5632523635363870  0.5607013543298679  0.4382688575311903
  0.5294231147125518  0.4157995378916742  0.5378259664049334
  0.5035653866862766  0.4680448905527161  0.4445980364267526

  0.17213795E-02  0.13077504E-01 -0.14759938E-02
 -0.59867772E-02  0.63349825E-02  0.11101636E-01
  0.94065979E-02 -0.16750380E-01 -0.10885437E-01
 -0.23714286E-02 -0.45254817E-02  0.72278288E-02
 -0.23060291E-03  0.15513902E-03 -0.49688067E-03

           1
   2.0000000000000000     
  0.10914753E+01  0.34690923E-01 -0.61685028E-02  0.00000000E+00
  0.52308240E+00  0.40044250E+00  0.36151112E+00
  0.39257977E+00  0.48650006E+00  0.45287106E+00
  0.56513368E+00  0.55735128E+00  0.43609177E+00
  0.52894883E+00  0.41489444E+00  0.53927153E+00
  0.50351927E+00  0.46807592E+00  0.44449866E+00
  0.14219155E-03  0.41519352E-03 -0.75755369E-03
 -0.19264094E-02  0.74176455E-03  0.19663640E-02
  0.23265003E-02 -0.19104751E-02 -0.17573663E-02
 -0.53407413E-03 -0.39295246E-03  0.87958005E-03
 -0.68339601E-06  0.95451629E-04 -0.27560077E-04
  0.00000000E+00  0.00000000E+00  0.00000000E+00
  0.00000000E+00  0.00000000E+00  0.00000000E+00
  0.00000000E+00  0.00000000E+00  0.00000000E+00
  0.00000000E+00  0.00000000E+00  0.00000000E+00
  0.00000000E+00  0.00000000E+00  0.00000000E+00
